\ This file has been generated by DOcplex
\ ENCODING=ISO-8859-1
\Problem name: Qrandom11442_6.lp

Minimize
 obj: - 8684 x0 - 4342 x1 - 2171 x2 - 8680 x3 - 4340 x4 - 2170 x5 + [ 4960 x0^2
      + 4960 x0*x1 + 2480 x0*x2 + 9920 x0*x3 + 4960 x0*x4 + 2480 x0*x5
      + 1240 x1^2 + 1240 x1*x2 + 4960 x1*x3 + 2480 x1*x4 + 1240 x1*x5 + 310 x2^2
      + 2480 x2*x3 + 1240 x2*x4 + 620 x2*x5 + 5056 x3^2 + 5056 x3*x4
      + 2528 x3*x5 + 1264 x4^2 + 1264 x4*x5 + 316 x5^2 ]/2 + 7595
Subject To

Bounds
 0 <= x0 <= 1
 0 <= x1 <= 1
 0 <= x2 <= 1
 0 <= x3 <= 1
 0 <= x4 <= 1
 0 <= x5 <= 1

Binaries
 x0 x1 x2 x3 x4 x5
End
